8
2147483647 17 25 78 47 36 42 9 
17 2147483647 18 100 39 67 98 61 
25 18 2147483647 26 96 13 95 74 
78 100 26 2147483647 9 49 72 15 
47 39 96 9 2147483647 72 13 12 
36 67 13 49 72 2147483647 57 53 
42 98 95 72 13 57 2147483647 37 
9 61 74 15 12 53 37 2147483647 
